NAME : 24.80833.tour
COMMENT : Length = 80833
COMMENT : Found by LKH-3 [Keld Helsgaun] Thu Jun 19 18:16:41 2025
TYPE : TOUR
DIMENSION : 100
TOUR_SECTION
1
10
48
82
7
44
93
20
23
21
64
84
43
68
55
17
56
61
54
37
25
74
65
52
51
38
75
12
79
2
98
99
62
91
13
39
33
78
29
31
35
9
3
14
8
97
6
94
69
85
88
81
63
60
53
36
80
34
67
11
16
86
5
59
27
47
57
50
90
72
32
76
19
45
73
4
83
89
41
87
18
22
92
71
58
70
96
66
77
24
40
100
42
95
49
30
15
46
26
28
-1
EOF
